4 
5  17 32 47 
6  02 17 32 47 
7  02 17 32 47 
8  02 17 32 47 
9  02 17 34 49 
10  04 19 34 49 
11  04 19 34 49 
12  04 19 34 49 
13  04 19 34 49 
14  04 19 31 46 
15  02 17 32 47 
16  02 17 32 47 
17  02 17 32 47 
18  02 17 32 47 
19  05 19 31 46 
20  01 
21 
